NAME 
ROWS
 N  OBJ
 L  R0      
 E  R1      
 E  R2      
 E  R3      
 E  R4      
 E  R5      
 E  R6      
 E  R7      
 E  R8      
 E  R9      
 E  R10     
COLUMNS
    MARKER    'MARKER'                 'INTORG'
    I0(5)     OBJ       69
    I0(5)     R0        -165
    I0(5)     R1        17
    I0(5)     R2        2
    I0(5)     R4        9
    I0(5)     R10       1
    I1(5)     OBJ       -6
    I1(5)     R0        61
    I1(5)     R1        9
    I1(5)     R2        18
    I1(5)     R3        2
    I1(5)     R10       1
    I2(4)     OBJ       66
    I2(4)     R0        25
    I2(4)     R3        10
    I2(4)     R4        15
    I2(4)     R10       1
    I3(5)     OBJ       -108
    I3(5)     R0        99
    I3(5)     R1        19
    I3(5)     R3        3
    I3(5)     R4        12
    I3(5)     R10       1
    MARKER    'MARKER'                 'INTEND'
    C4(3)     OBJ       -5
    C4(3)     R0        -7
    C4(3)     R5        13
    C4(3)     R9        4
    C5(7)     OBJ       3
    C5(7)     R0        -4
    C5(7)     R1        11
    C5(7)     R2        17
    C5(7)     R3        4
    C5(7)     R4        3
    C5(7)     R5        3
    C5(7)     R7        8
    C6(6)     OBJ       4
    C6(6)     R0        6
    C6(6)     R2        17
    C6(6)     R3        17
    C6(6)     R4        -1
    C6(6)     R6        14
    C6(6)     R9        19
    C7(5)     OBJ       7
    C7(5)     R0        6
    C7(5)     R4        16
    C7(5)     R7        6
    C7(5)     R8        14
    C7(5)     R9        6
    C8(6)     OBJ       -2
    C8(6)     R0        -5
    C8(6)     R2        18
    C8(6)     R3        16
    C8(6)     R6        15
    C8(6)     R7        17
    C8(6)     R8        10
    C9(4)     OBJ       2
    C9(4)     R0        9
    C9(4)     R1        17
    C9(4)     R5        16
    C9(4)     R9        1
    C10(1)    R1        1
    C11(1)    R2        1
    C12(1)    R3        1
    C13(1)    R4        1
    C14(1)    R5        1
    C15(1)    R6        1
    C16(1)    R7        1
    C17(1)    R8        1
    C18(1)    R9        1
    C19(1)    R10       1
RHS
    RHS1      R0        5.4529411764705884e+01
    RHS1      R1        72
    RHS1      R2        85
    RHS1      R3        73
    RHS1      R4        50
    RHS1      R5        52
    RHS1      R6        82
    RHS1      R7        56
    RHS1      R8        77
    RHS1      R9        99
    RHS1      R10       1
BOUNDS
 UP BND1      I0(5)     1
 UP BND1      I1(5)     1
 UP BND1      I2(4)     1
 UP BND1      I3(5)     1
ENDATA
